AoPS/c6h1468155p8509522.smt2
(set-info :smt-lib-version 2.6)
(set-logic AUFNIRA)
(set-info :source |
Generated by: Mirek Olšák, Mikoláš Janota, Chad E. Brown
Generated on: 2024-04-14
Application: Mathematics challenges involving function synthesis
From a collection by: Vít Musil
Source url: https://prase.cz/library/FunkcionalniRovniceVM/FunkcionalniRovniceVM.pdf
Original source: c6h1468155p8509522
|)
(set-info :license "https://creativecommons.org/licenses/by-nc/4.0/")
(set-info :category "crafted")
(set-info :status sat)

; Header
(declare-fun f (Real) Real)

; Equations
(assert (forall ((a Real) (b Real) (c Real)) (=> (>= (+ (+ a b) c) 0.0) (>= (+ (+ (f (* a a a)) (f (* b b b))) (f (* c c c))) (* 3.0 (f (* (* a b) c)))))))
(assert (forall ((a Real) (b Real) (c Real)) (=> (<= (+ (+ a b) c) 0.0) (<= (+ (+ (f (* a a a)) (f (* b b b))) (f (* c c c))) (* 3.0 (f (* (* a b) c)))))))

; Find all possible f

(check-sat)
(exit)
(get-model)
